
Log started (V12.8.0.0) Thu Aug 30 12:37:34 2018

New value for time limit in seconds: 500
CPXPARAM_TimeLimit                               500
CPXPARAM_Emphasis_Numerical                      1
CPXPARAM_Parallel                                -1
CPXPARAM_Benders_Strategy                        3
CPXPARAM_MIP_Tolerances_Integrality              9.9999999999999995e-08
CPXPARAM_MIP_Pool_AbsGap                         0
Tried aggregator 4 times.
MIP Presolve eliminated 7506 rows and 3536 columns.
Aggregator did 1223 substitutions.
Reduced MIP has 3147 rows, 2709 columns, and 10888 nonzeros.
Reduced MIP has 271 binaries, 0 generals, 0 SOSs, and 0 indicators.
Presolve time = 0.01 sec. (15.79 ticks)
Found incumbent of value -6.000000 after 0.03 sec. (24.83 ticks)
Tried aggregator 1 time.
Reduced MIP has 3147 rows, 2709 columns, and 10888 nonzeros.
Reduced MIP has 271 binaries, 0 generals, 0 SOSs, and 0 indicators.
Presolve time = 0.00 sec. (3.18 ticks)

        Nodes                                         Cuts/
   Node  Left     Objective  IInf  Best Integer    Best Bound    ItCnt     Gap

      0     0        0.0000                       Benders: 10        0         
      0     0        0.0000                        Benders: 1        3         
      0     0        0.0000                        Benders: 1        4         
      0     0        0.0000                        Benders: 1        5         
      0     0        0.0000                            0.0000        6         
Tried aggregator 1 time.
MIP Presolve modified 140 coefficients.
Reduced MIP has 270 rows, 281 columns, and 846 nonzeros.
Reduced MIP has 271 binaries, 0 generals, 0 SOSs, and 0 indicators.
Presolve time = 0.00 sec. (0.48 ticks)
Probing time = 0.00 sec. (0.12 ticks)
Tried aggregator 1 time.
Reduced MIP has 270 rows, 281 columns, and 846 nonzeros.
Reduced MIP has 271 binaries, 0 generals, 0 SOSs, and 0 indicators.
Presolve time = 0.00 sec. (0.48 ticks)
Probing time = 0.00 sec. (0.12 ticks)
Clique table members: 246.
MIP emphasis: balance optimality and feasibility.
MIP search method: dynamic search.
Parallel mode: opportunistic, using up to 8 threads.
Root relaxation solution time = 0.00 sec. (0.33 ticks)
*     0+    0                           -6.0000       -0.0000           100.00%
      0     0        0.0000     5       -6.0000       -0.0000       29  100.00%
*     0+    0                           -5.5000       -0.0000           100.00%
      0     0        0.0000     4       -5.5000      Fract: 2       32  100.00%
      0     0        0.0000     4       -5.5000      Fract: 3       33  100.00%
*     0+    0                           -4.4667       -0.0000           100.00%

Repeating presolve.
Tried aggregator 1 time.
Reduced MIP has 270 rows, 281 columns, and 846 nonzeros.
Reduced MIP has 271 binaries, 0 generals, 0 SOSs, and 0 indicators.
Presolve time = 0.00 sec. (0.48 ticks)
Probing time = 0.00 sec. (0.12 ticks)
Tried aggregator 1 time.
Reduced MIP has 270 rows, 281 columns, and 846 nonzeros.
Reduced MIP has 271 binaries, 0 generals, 0 SOSs, and 0 indicators.
Presolve time = 0.00 sec. (0.48 ticks)
Represolve time = 0.00 sec. (1.89 ticks)
Probing time = 0.00 sec. (0.12 ticks)
Clique table members: 246.
MIP emphasis: balance optimality and feasibility.
MIP search method: dynamic search.
Parallel mode: opportunistic, using up to 8 threads.
Root relaxation solution time = 0.00 sec. (0.55 ticks)
*     0+    0                           -4.4667       -0.0000           100.00%
      0     0        0.0000     7       -4.4667       -0.0000       70  100.00%
      0     0        0.0000     9       -4.4667      Fract: 1       79  100.00%
*     0+    0                           -2.7139       -0.0000           100.00%
      0     0        0.0000     9       -2.7139      Fract: 7       81  100.00%
      0     2        0.0000    10       -2.7139       Cuts: 2       81  100.00%
Elapsed time = 0.51 sec. (422.03 ticks, tree = 0.01 MB, solutions = 1)
*   476+   62                           -2.6889       -0.3000            88.84%
*   649+   27                           -2.4889       -0.7438            70.11%

Benders cuts applied:  299
Gomory fractional cuts applied:  8

Root node processing (before b&c):
  Real time             =    0.45 sec. (421.67 ticks)
Parallel b&c, 8 threads:
  Real time             =    0.32 sec. (197.80 ticks)
  Sync time (average)   =    0.05 sec.
  Wait time (average)   =    0.01 sec.
                          ------------
Total (root+branch&cut) =    0.77 sec. (619.47 ticks)

Solution pool: 4 solutions saved.

MIP - Integer optimal solution:  Objective = -2.3500000000e+00
Solution time =    0.78 sec.  Iterations = 5830  Nodes = 1692 (1)
Deterministic time = 620.05 ticks  (799.80 ticks/sec)


Solution pool written to file 'ngp_a3_b2_n1.sol'.
Current MIP best bound = -2.3500000000e+00 (gap = -0, 0.00%)
